decision_x1=[0,2];
decision_x2=[0,2];
decision_x3=[0,2];
decision_x4=[0,2];
decision_x5=[0,2];
decision_x6=[0,2];
decision_x7=[0,2];
decision_x8=[0,2];
decision_x9=[0,2];
decision_x10=[0,2];
decision_x11=[0,2];
decision_x12=[0,2];
random_y1=[0,2];
random_y2=[0,2];
random_y3=[0,2];
random_y4=[0,2];
random_y5=[0,2];
random_y6=[0,2];
random_y7=[0,2];
random_y8=[0,2];
random_y9=[0,2];
random_y10=[0,2];
random_y11=[0,2];
random_y12=[0,2];
constraint_x3_x2=[
0,0,26|
0,1,69|
0,2,31|
1,0,18|
1,1,75|
1,2,22|
2,0,59|
2,1,81|
2,2,41|
];
constraint_x4_x2=[
0,0,20|
0,1,19|
0,2,32|
1,0,95|
1,1,78|
1,2,34|
2,0,54|
2,1,11|
2,2,25|
];
constraint_x4_x3=[
0,0,99|
0,1,0.087|
0,2,79|
1,0,91|
1,1,46|
1,2,74|
2,0,24|
2,1,20|
2,2,90|
];
constraint_x5_x1=[
0,0,68|
0,1,59|
0,2,61|
1,0,66|
1,1,26|
1,2,18|
2,0,84|
2,1,1.4|
2,2,33|
];
constraint_x7_x1=[
0,0,72|
0,1,15|
0,2,54|
1,0,14|
1,1,88|
1,2,6.7|
2,0,47|
2,1,23|
2,2,65|
];
constraint_x7_x2=[
0,0,55|
0,1,64|
0,2,75|
1,0,29|
1,1,30|
1,2,67|
2,0,25|
2,1,22|
2,2,92|
];
constraint_x8_x3=[
0,0,91|
0,1,88|
0,2,72|
1,0,74|
1,1,9.6|
1,2,61|
2,0,33|
2,1,62|
2,2,82|
];
constraint_x8_x4=[
0,0,73|
0,1,92|
0,2,92|
1,0,45|
1,1,37|
1,2,61|
2,0,17|
2,1,93|
2,2,1.1|
];
constraint_x8_x5=[
0,0,65|
0,1,51|
0,2,88|
1,0,42|
1,1,43|
1,2,99|
2,0,60|
2,1,49|
2,2,26|
];
constraint_x9_x1=[
0,0,50|
0,1,17|
0,2,14|
1,0,76|
1,1,21|
1,2,12|
2,0,7.7|
2,1,8.6|
2,2,81|
];
constraint_x9_x3=[
0,0,50|
0,1,21|
0,2,38|
1,0,96|
1,1,1.2|
1,2,76|
2,0,74|
2,1,79|
2,2,33|
];
constraint_x9_x5=[
0,0,25|
0,1,10|
0,2,44|
1,0,25|
1,1,38|
1,2,1.7|
2,0,81|
2,1,87|
2,2,51|
];
constraint_x9_x7=[
0,0,18|
0,1,45|
0,2,74|
1,0,32|
1,1,63|
1,2,24|
2,0,38|
2,1,7.9|
2,2,99|
];
constraint_x9_x8=[
0,0,68|
0,1,99|
0,2,2.5|
1,0,0.93|
1,1,43|
1,2,65|
2,0,35|
2,1,54|
2,2,70|
];
constraint_x10_x1=[
0,0,77|
0,1,26|
0,2,68|
1,0,67|
1,1,94|
1,2,82|
2,0,56|
2,1,32|
2,2,55|
];
constraint_x10_x4=[
0,0,61|
0,1,88|
0,2,85|
1,0,84|
1,1,38|
1,2,48|
2,0,30|
2,1,54|
2,2,36|
];
constraint_x10_x5=[
0,0,17|
0,1,25|
0,2,79|
1,0,1.7|
1,1,53|
1,2,36|
2,0,45|
2,1,19|
2,2,93|
];
constraint_x10_x7=[
0,0,69|
0,1,51|
0,2,77|
1,0,62|
1,1,36|
1,2,97|
2,0,93|
2,1,1.8|
2,2,97|
];
constraint_x10_x8=[
0,0,30|
0,1,16|
0,2,58|
1,0,81|
1,1,32|
1,2,84|
2,0,29|
2,1,44|
2,2,60|
];
constraint_x11_x2=[
0,0,81|
0,1,47|
0,2,9.4|
1,0,85|
1,1,12|
1,2,80|
2,0,87|
2,1,45|
2,2,22|
];
constraint_x11_x3=[
0,0,64|
0,1,64|
0,2,91|
1,0,90|
1,1,48|
1,2,69|
2,0,67|
2,1,5.6|
2,2,0.42|
];
constraint_x11_x4=[
0,0,15|
0,1,89|
0,2,25|
1,0,90|
1,1,91|
1,2,87|
2,0,67|
2,1,92|
2,2,18|
];
constraint_x11_x5=[
0,0,57|
0,1,66|
0,2,45|
1,0,96|
1,1,1e+02|
1,2,98|
2,0,59|
2,1,14|
2,2,29|
];
constraint_x11_x6=[
0,0,64|
0,1,77|
0,2,65|
1,0,25|
1,1,26|
1,2,28|
2,0,11|
2,1,90|
2,2,81|
];
constraint_x11_x7=[
0,0,64|
0,1,29|
0,2,42|
1,0,66|
1,1,72|
1,2,2.8|
2,0,60|
2,1,22|
2,2,52|
];
constraint_x11_x8=[
0,0,62|
0,1,40|
0,2,95|
1,0,29|
1,1,33|
1,2,81|
2,0,94|
2,1,6|
2,2,6.5|
];
constraint_x11_x9=[
0,0,75|
0,1,41|
0,2,80|
1,0,84|
1,1,7.6|
1,2,81|
2,0,40|
2,1,84|
2,2,82|
];
constraint_x12_x3=[
0,0,98|
0,1,39|
0,2,81|
1,0,76|
1,1,91|
1,2,66|
2,0,40|
2,1,48|
2,2,56|
];
constraint_x12_x4=[
0,0,76|
0,1,37|
0,2,2.9|
1,0,78|
1,1,36|
1,2,48|
2,0,23|
2,1,53|
2,2,40|
];
constraint_x12_x5=[
0,0,71|
0,1,91|
0,2,11|
1,0,80|
1,1,58|
1,2,78|
2,0,27|
2,1,36|
2,2,0.41|
];
constraint_x12_x6=[
0,0,84|
0,1,4.5|
0,2,1e+02|
1,0,85|
1,1,82|
1,2,15|
2,0,37|
2,1,37|
2,2,90|
];
constraint_x12_x7=[
0,0,60|
0,1,35|
0,2,53|
1,0,63|
1,1,43|
1,2,49|
2,0,59|
2,1,83|
2,2,9.2|
];
constraint_x12_x11=[
0,0,62|
0,1,22|
0,2,12|
1,0,62|
1,1,30|
1,2,1e+02|
2,0,55|
2,1,64|
2,2,79|
];
constraint_x1_y1=[
0,0,13|
0,1,47|
0,2,58|
1,0,41|
1,1,97|
1,2,8.2|
2,0,2.8|
2,1,71|
2,2,69|
];
constraint_x2_y2=[
0,0,98|
0,1,87|
0,2,94|
1,0,4.3|
1,1,60|
1,2,30|
2,0,25|
2,1,64|
2,2,14|
];
constraint_x3_y3=[
0,0,22|
0,1,51|
0,2,26|
1,0,33|
1,1,68|
1,2,30|
2,0,60|
2,1,73|
2,2,16|
];
constraint_x4_y4=[
0,0,19|
0,1,14|
0,2,17|
1,0,55|
1,1,93|
1,2,69|
2,0,78|
2,1,77|
2,2,3.9|
];
constraint_x5_y5=[
0,0,9.3|
0,1,91|
0,2,98|
1,0,37|
1,1,12|
1,2,82|
2,0,83|
2,1,0.43|
2,2,36|
];
constraint_x6_y6=[
0,0,94|
0,1,57|
0,2,1.4|
1,0,41|
1,1,13|
1,2,54|
2,0,75|
2,1,34|
2,2,50|
];
constraint_x7_y7=[
0,0,46|
0,1,74|
0,2,2.8|
1,0,76|
1,1,98|
1,2,13|
2,0,92|
2,1,73|
2,2,3.5|
];
constraint_x8_y8=[
0,0,27|
0,1,4|
0,2,13|
1,0,72|
1,1,79|
1,2,94|
2,0,92|
2,1,24|
2,2,52|
];
constraint_x9_y9=[
0,0,17|
0,1,52|
0,2,98|
1,0,57|
1,1,79|
1,2,92|
2,0,59|
2,1,24|
2,2,2.3|
];
constraint_x10_y10=[
0,0,2.1|
0,1,43|
0,2,2.3|
1,0,29|
1,1,15|
1,2,39|
2,0,0.62|
2,1,65|
2,2,36|
];
constraint_x11_y11=[
0,0,78|
0,1,63|
0,2,83|
1,0,35|
1,1,18|
1,2,4.5|
2,0,98|
2,1,75|
2,2,19|
];
constraint_x12_y12=[
0,0,51|
0,1,21|
0,2,72|
1,0,96|
1,1,91|
1,2,41|
2,0,71|
2,1,28|
2,2,30|
];
initial_distribution_y1=[0.11,0.23,0.65];
initial_distribution_y2=[0.16,0.4,0.44];
initial_distribution_y3=[0.48,0.28,0.24];
initial_distribution_y4=[0.04,0.39,0.57];
initial_distribution_y5=[0.35,0.5,0.15];
initial_distribution_y6=[0.16,0.48,0.36];
initial_distribution_y7=[0.5,0.41,0.089];
initial_distribution_y8=[0.23,0.51,0.26];
initial_distribution_y9=[0.45,0.052,0.5];
initial_distribution_y10=[0.28,0.33,0.38];
initial_distribution_y11=[0.49,0.078,0.44];
initial_distribution_y12=[0.68,0.085,0.24];
transition_y1=[
0.064,0.58,0.36|
0.52,0.42,0.052|
0.46,0.15,0.39|
];
transition_y2=[
0.51,0.22,0.27|
0.42,0.17,0.41|
0.37,0.2,0.44|
];
transition_y3=[
0.14,0.16,0.7|
0.27,0.34,0.39|
0.19,0.5,0.31|
];
transition_y4=[
0.78,0.048,0.17|
0.38,0.41,0.22|
0.097,0.65,0.26|
];
transition_y5=[
0.18,0.3,0.52|
0.34,0.45,0.21|
0.39,0.16,0.46|
];
transition_y6=[
0.23,0.049,0.72|
0.44,0.37,0.19|
0.43,0.29,0.28|
];
transition_y7=[
0.56,0.25,0.19|
0.75,0.12,0.13|
0.29,0.43,0.28|
];
transition_y8=[
0.092,0.57,0.34|
0.67,0.28,0.056|
0.41,0.39,0.21|
];
transition_y9=[
0.39,0.15,0.46|
0.43,0.082,0.49|
0.55,0.21,0.24|
];
transition_y10=[
0.5,0.21,0.28|
0.28,0.35,0.37|
0.32,0.3,0.39|
];
transition_y11=[
0.082,0.4,0.52|
0.33,0.54,0.14|
0.38,0.3,0.33|
];
transition_y12=[
0.42,0.45,0.13|
0.092,0.44,0.46|
0.44,0.2,0.36|
];
